n_res = 4;
rc = [ 0, 0, 0, 0 ];
n_tasks = 30;
d = [ 6, 4, 2, 1, 5, 1, 3, 5, 6, 6, 4, 1, 6, 5, 3, 3, 2, 3, 3, 7, 4, 8, 1, 8, 8, 5, 1, 5, 2, 1 ];
rr = [| 0, 0, 0, 0, 0, 0, 0, 0, 0, 0, 0, 0, 0, 0, 0, 0, 0, 0, 0, 0, 0, 0, 0, 0, 0, 0, 0, 0, 0, 0
      | 0, 0, 0, 0, 0, 0, 0, 0, 0, 0, 0, 0, 0, 0, 0, 0, 0, 0, 0, 0, 0, 0, 0, 0, 0, 0, 0, 0, 0, 0
      | 0, 0, 0, 0, 0, 0, 0, 0, 0, 0, 0, 0, 0, 0, 0, 0, 0, 0, 0, 0, 0, 0, 0, 0, 0, 0, 0, 0, 0, 0
      | 0, 0, 0, 0, 0, 0, 0, 0, 0, 0, 0, 0, 0, 0, 0, 0, 0, 0, 0, 0, 0, 0, 0, 0, 0, 0, 0, 0, 0, 0 |];
suc = [ { 10, 11, 14 },
       { 4, 7, 15 },
       { 26 },
       { 5, 11, 13 },
       { 6 },
       { 8, 27 },
       { 9, 19 },
       { 12, 20 },
       { 16, 24 },
       { 24, 27 },
       { 24, 28 },
       { 21, 22, 30 },
       { 16 },
       { 23 },
       { 17 },
       { 25 },
       { 18, 22 },
       { 21 },
       { 28 },
       { 30 },
       { 23 },
       { 23 },
       { 28 },
       { 29 },
       { 27 },
       { 29 },
       { 29 },
       {  },
       {  },
       {  } ];
